Route #1: 75 93
Route #2: 25 65 78 42 28
Route #3: 86 9 92
Route #4: 35 46 31
Route #5: 32 33 53 73 95 24
Route #6: 30 85 11 79
Route #7: 68 90 84 66
Route #8: 52 91 50
Route #9: 1 70 54
Route #10: 27 97 19
Route #11: 3 77 63
Route #12: 89 98 99 62 71
Route #13: 17 8
Route #14: 69 16 55 76
Route #15: 21 56 94 80
Route #16: 23 61 100
Route #17: 74 13 4
Route #18: 59 60 82
Route #19: 18 10 39
Route #20: 14 49 6 37 87
Route #21: 44 67 88 40
Route #22: 38 47 26 48 96 64 34
Route #23: 5 12 58
Route #24: 15 22 41 20
Route #25: 83 51 81
Route #26: 7 2 45 43 29 36 72 57
Cost 27591.0000
Time 16.0004